3 
4 
5  11 31 49 
6  04 17 32 47 
7  02 17 32 47 
8  02 17 32 47 
9  03 17 32 47 
10  02 17 31 46 
11  01 16 31 46 
12  01 16 31 46 
13  01 16 31 46 
14  01 16 31 46 
15  01 16 31 46 
16  01 16 31 46 
17  01 16 31 46 
18  01 16 32 47 
19  02 17 32 47 
20  02 17 32 47 
21  05 20 32 47 
22  02 17 36 51 
23  07 
0 
